NAME 
ROWS
 N  OBJ
 L  R0      
 E  R1      
 E  R2      
 E  R3      
 E  R4      
 E  R5      
 E  R6      
 E  R7      
 E  R8      
 E  R9      
 E  R10     
 E  R11     
 E  R12     
 E  R13     
 E  R14     
 E  R15     
 E  R16     
 E  R17     
 E  R18     
 E  R19     
 E  R20     
 E  R21     
 E  R22     
 E  R23     
 E  R24     
 E  R25     
 E  R26     
 E  R27     
 E  R28     
 E  R29     
 E  R30     
COLUMNS
    MARKER    'MARKER'                 'INTORG'
    I0(3)     OBJ       -117
    I0(3)     R0        -185
    I0(3)     R1        9
    I0(3)     R30       1
    I1(3)     OBJ       30
    I1(3)     R0        14
    I1(3)     R2        18
    I1(3)     R30       1
    I2(3)     OBJ       -160
    I2(3)     R0        -97
    I2(3)     R3        3
    I2(3)     R30       1
    I3(3)     OBJ       -169
    I3(3)     R0        11
    I3(3)     R4        -1
    I3(3)     R30       1
    I4(2)     OBJ       37
    I4(2)     R0        -14
    I4(2)     R30       1
    I5(3)     OBJ       147
    I5(3)     R0        -82
    I5(3)     R6        4
    I5(3)     R30       1
    I6(3)     OBJ       -161
    I6(3)     R0        -175
    I6(3)     R7        16
    I6(3)     R30       1
    I7(3)     OBJ       -110
    I7(3)     R0        -6
    I7(3)     R8        9
    I7(3)     R30       1
    I8(3)     OBJ       -47
    I8(3)     R0        -75
    I8(3)     R9        3
    I8(3)     R30       1
    I9(2)     OBJ       -194
    I9(2)     R0        -165
    I9(2)     R30       1
    I10(3)    OBJ       179
    I10(3)    R0        -144
    I10(3)    R11       3
    I10(3)    R30       1
    I11(3)    OBJ       -188
    I11(3)    R0        69
    I11(3)    R12       3
    I11(3)    R30       1
    I12(3)    OBJ       -151
    I12(3)    R0        116
    I12(3)    R13       -1
    I12(3)    R30       1
    I13(3)    OBJ       -6
    I13(3)    R0        -178
    I13(3)    R14       8
    I13(3)    R30       1
    I14(3)    OBJ       -3
    I14(3)    R0        -34
    I14(3)    R15       4
    I14(3)    R30       1
    I15(3)    OBJ       -8
    I15(3)    R0        -169
    I15(3)    R16       15
    I15(3)    R30       1
    I16(3)    OBJ       -188
    I16(3)    R0        150
    I16(3)    R17       15
    I16(3)    R30       1
    I17(3)    OBJ       -179
    I17(3)    R0        -200
    I17(3)    R18       16
    I17(3)    R30       1
    I18(3)    OBJ       -152
    I18(3)    R0        -194
    I18(3)    R19       -1
    I18(3)    R30       1
    I19(3)    OBJ       97
    I19(3)    R0        -168
    I19(3)    R20       15
    I19(3)    R30       1
    I20(3)    OBJ       -121
    I20(3)    R0        154
    I20(3)    R21       1
    I20(3)    R30       1
    I21(3)    OBJ       146
    I21(3)    R0        -168
    I21(3)    R22       7
    I21(3)    R30       1
    I22(3)    OBJ       -143
    I22(3)    R0        -58
    I22(3)    R23       15
    I22(3)    R30       1
    I23(3)    OBJ       -13
    I23(3)    R0        -169
    I23(3)    R24       5
    I23(3)    R30       1
    I24(3)    OBJ       -161
    I24(3)    R0        -122
    I24(3)    R25       5
    I24(3)    R30       1
    I25(3)    OBJ       199
    I25(3)    R0        136
    I25(3)    R26       9
    I25(3)    R30       1
    I26(3)    OBJ       -164
    I26(3)    R0        -130
    I26(3)    R27       8
    I26(3)    R30       1
    I27(3)    OBJ       -135
    I27(3)    R0        122
    I27(3)    R28       16
    I27(3)    R30       1
    MARKER    'MARKER'                 'INTEND'
    C28(28)   OBJ       -9
    C28(28)   R0        8
    C28(28)   R1        6
    C28(28)   R2        4
    C28(28)   R3        10
    C28(28)   R4        3
    C28(28)   R5        8
    C28(28)   R6        8
    C28(28)   R7        -1
    C28(28)   R8        9
    C28(28)   R9        -1
    C28(28)   R10       7
    C28(28)   R11       -1
    C28(28)   R12       18
    C28(28)   R13       16
    C28(28)   R14       4
    C28(28)   R15       6
    C28(28)   R16       5
    C28(28)   R17       14
    C28(28)   R18       5
    C28(28)   R19       14
    C28(28)   R20       14
    C28(28)   R21       9
    C28(28)   R23       5
    C28(28)   R24       1
    C28(28)   R25       9
    C28(28)   R26       2
    C28(28)   R28       16
    C28(28)   R29       10
    C29(30)   OBJ       1
    C29(30)   R0        1
    C29(30)   R1        9
    C29(30)   R2        5
    C29(30)   R3        7
    C29(30)   R4        10
    C29(30)   R5        19
    C29(30)   R6        6
    C29(30)   R7        2
    C29(30)   R8        5
    C29(30)   R9        17
    C29(30)   R10       1
    C29(30)   R11       10
    C29(30)   R12       19
    C29(30)   R13       13
    C29(30)   R14       5
    C29(30)   R15       3
    C29(30)   R16       8
    C29(30)   R17       10
    C29(30)   R18       1
    C29(30)   R19       -1
    C29(30)   R20       1
    C29(30)   R21       1
    C29(30)   R22       13
    C29(30)   R23       19
    C29(30)   R24       12
    C29(30)   R25       2
    C29(30)   R26       16
    C29(30)   R27       15
    C29(30)   R28       5
    C29(30)   R29       3
    C30(1)    R1        1
    C31(1)    R2        1
    C32(1)    R3        1
    C33(1)    R4        1
    C34(1)    R5        1
    C35(1)    R6        1
    C36(1)    R7        1
    C37(1)    R8        1
    C38(1)    R9        1
    C39(1)    R10       1
    C40(1)    R11       1
    C41(1)    R12       1
    C42(1)    R13       1
    C43(1)    R14       1
    C44(1)    R15       1
    C45(1)    R16       1
    C46(1)    R17       1
    C47(1)    R18       1
    C48(1)    R19       1
    C49(1)    R20       1
    C50(1)    R21       1
    C51(1)    R22       1
    C52(1)    R23       1
    C53(1)    R24       1
    C54(1)    R25       1
    C55(1)    R26       1
    C56(1)    R27       1
    C57(1)    R28       1
    C58(1)    R29       1
    C59(1)    R30       1
RHS
    RHS1      R0        -6.3328571428571433e+02
    RHS1      R1        93
    RHS1      R2        66
    RHS1      R3        78
    RHS1      R4        79
    RHS1      R5        85
    RHS1      R6        85
    RHS1      R7        89
    RHS1      R8        60
    RHS1      R9        66
    RHS1      R10       57
    RHS1      R11       70
    RHS1      R12       83
    RHS1      R13       58
    RHS1      R14       67
    RHS1      R15       56
    RHS1      R16       86
    RHS1      R17       60
    RHS1      R18       99
    RHS1      R19       85
    RHS1      R20       75
    RHS1      R21       92
    RHS1      R22       67
    RHS1      R23       80
    RHS1      R24       50
    RHS1      R25       59
    RHS1      R26       88
    RHS1      R27       91
    RHS1      R28       79
    RHS1      R29       82
    RHS1      R30       9
BOUNDS
 UP BND1      I0(3)     1
 UP BND1      I1(3)     1
 UP BND1      I2(3)     1
 UP BND1      I3(3)     1
 UP BND1      I4(2)     1
 UP BND1      I5(3)     1
 UP BND1      I6(3)     1
 UP BND1      I7(3)     1
 UP BND1      I8(3)     1
 UP BND1      I9(2)     1
 UP BND1      I10(3)    1
 UP BND1      I11(3)    1
 UP BND1      I12(3)    1
 UP BND1      I13(3)    1
 UP BND1      I14(3)    1
 UP BND1      I15(3)    1
 UP BND1      I16(3)    1
 UP BND1      I17(3)    1
 UP BND1      I18(3)    1
 UP BND1      I19(3)    1
 UP BND1      I20(3)    1
 UP BND1      I21(3)    1
 UP BND1      I22(3)    1
 UP BND1      I23(3)    1
 UP BND1      I24(3)    1
 UP BND1      I25(3)    1
 UP BND1      I26(3)    1
 UP BND1      I27(3)    1
ENDATA
